* #variable= 5 #constraint= 21
+1 ~x1 +1 ~x2 +1 ~x5 >= 1;
+1 ~x2 +1 ~x4 +1 x5 >= 1;
+1 ~x1 +1 ~x3 +1 ~x5 >= 1;
+1 x2 +1 ~x4 +1 ~x5 >= 1;
+1 ~x1 +1 x3 +1 ~x5 >= 1;
+1 ~x1 +1 x2 +1 x3 >= 1;
+1 x2 +1 ~x4 +1 x5 >= 1;
+1 x2 +1 x3 +1 ~x5 >= 1;
+1 ~x3 +1 ~x4 +1 x5 >= 1;
+1 x1 +1 x2 +1 ~x3 >= 1;
+1 x3 +1 x4 +1 ~x5 >= 1;
+1 x1 +1 ~x2 +1 x3 >= 1;
+1 x1 +1 ~x3 +1 ~x5 >= 1;
+1 ~x2 +1 x3 +1 x5 >= 1;
+1 ~x1 +1 x4 +1 ~x5 >= 1;
+1 ~x2 +1 x3 +1 ~x4 >= 1;
+1 x1 +1 ~x2 +1 x5 >= 1;
+1 ~x2 +1 ~x3 +1 x4 >= 1;
+1 ~x1 +1 ~x2 +1 x4 >= 1;
+1 x3 +1 x4 +1 x5 >= 1;
+1 x2 +1 x3 +1 ~x4 >= 1;
